Normalized Data/p10_2_normalized_split0.vrp
NAME:p10_2_NORMALIZED_split
BEST_KNOWN: 0
COMMENT: 0
DIMENSION: 834
CAPACITY: 100
EDGE_WEIGHT_FORMAT: FUNCTION
EDGE_WEIGHT_TYPE: EXACT_2D
NODE_COORD_SECTION
1 0.00000 0.00000
2 28 -46
3 28 -46
4 28 -46
5 28 -46
6 28 -46
7 28 -46
8 11 -26
9 11 -26
10 20 12
11 20 12
12 20 12
13 20 12
14 20 12
15 20 12
16 44 -40
17 44 -40
18 44 -40
19 44 -40
20 -36 20
21 -36 20
22 -36 20
23 -36 20
24 -36 20
25 -40 28
26 -40 28
27 -40 28
28 -40 28
29 -40 28
30 -40 28
31 -35 -1
32 -35 -1
33 -35 -1
34 -35 -1
35 -34 -10
36 -34 -10
37 -34 -10
38 -34 -10
39 -34 -10
40 -34 -10
41 15 25
42 15 25
43 15 25
44 15 25
45 50 14
46 50 14
47 50 14
48 50 14
49 50 14
50 50 14
51 21 -22
52 21 -22
53 21 -22
54 21 -22
55 -38 42
56 -38 42
57 -38 42
58 -38 42
59 -38 42
60 -2 -37
61 -2 -37
62 -2 -37
63 -2 -37
64 -2 -37
65 -2 -37
66 21 7
67 21 7
68 21 7
69 47 -21
70 47 -21
71 47 -21
72 47 -21
73 47 -21
74 47 -21
75 35 -6
76 35 -6
77 35 -6
78 35 -6
79 35 -6
80 2 21
81 2 21
82 2 21
83 2 21
84 2 21
85 2 21
86 -3 -1
87 -3 -1
88 -3 -1
89 -3 -1
90 -3 -1
91 -3 -1
92 -3 -1
93 22 -37
94 22 -37
95 22 -37
96 22 -37
97 -44 -1
98 -44 -1
99 -44 -1
100 -44 -1
101 5 18
102 5 18
103 5 18
104 33 16
105 33 16
106 33 16
107 33 16
108 33 16
109 -47 35
110 -47 35
111 -47 35
112 -49 14
113 -49 14
114 -49 14
115 -49 14
116 15 -48
117 15 -48
118 15 -48
119 15 -48
120 15 -48
121 15 -48
122 0 43
123 0 43
124 0 43
125 -47 -32
126 -47 -32
127 -47 -32
128 -47 -32
129 -47 -32
130 -5 -2
131 -5 -2
132 -5 -2
133 30 -8
134 30 -8
135 30 -8
136 40 37
137 40 37
138 44 3
139 44 3
140 44 3
141 -31 18
142 -31 18
143 -31 18
144 -31 18
145 -29 23
146 -29 23
147 -29 23
148 -29 23
149 -29 23
150 -29 23
151 -40 43
152 -40 43
153 -40 43
154 -40 43
155 -40 43
156 6 -19
157 6 -19
158 6 -19
159 6 -19
160 6 -19
161 -20 34
162 -20 34
163 -20 34
164 -20 34
165 -20 34
166 48 4
167 48 4
168 48 4
169 48 4
170 48 4
171 -2 2
172 -2 2
173 -2 2
174 -2 2
175 -2 2
176 -2 2
177 10 16
178 10 16
179 4 14
180 4 14
181 4 14
182 -7 -37
183 -7 -37
184 -7 -37
185 -7 -37
186 -7 -37
187 -7 -37
188 48 -5
189 48 -5
190 48 -5
191 48 -11
192 48 -11
193 -10 31
194 -10 31
195 -10 31
196 -10 31
197 -10 31
198 -10 31
199 35 45
200 35 45
201 35 45
202 -10 -7
203 -10 -7
204 -10 -7
205 -10 -7
206 -10 -7
207 42 43
208 42 43
209 42 43
210 42 43
211 24 -48
212 24 -48
213 24 -48
214 33 -5
215 33 -5
216 33 -5
217 33 -5
218 33 -5
219 33 -5
220 -3 -22
221 -3 -22
222 -3 -22
223 -3 -22
224 -3 -22
225 -10 34
226 -10 34
227 -10 34
228 -10 34
229 -10 34
230 -10 34
231 40 -8
232 40 -8
233 40 -8
234 40 -8
235 -5 27
236 -5 27
237 -5 27
238 -5 27
239 -35 12
240 -35 12
241 -35 12
242 -35 12
243 -30 -35
244 -30 -35
245 -30 -35
246 -11 43
247 -11 43
248 2 44
249 2 44
250 2 44
251 2 44
252 2 44
253 30 -9
254 30 -9
255 30 -9
256 30 -9
257 30 -9
258 30 -9
259 25 -16
260 25 -16
261 -35 -2
262 -35 -2
263 -35 -2
264 -35 -2
265 37 32
266 37 32
267 37 32
268 37 32
269 37 32
270 37 32
271 -15 -42
272 -15 -42
273 -15 -42
274 -13 12
275 -13 12
276 -13 12
277 0 -16
278 0 -16
279 0 -16
280 0 -16
281 0 -16
282 -47 -30
283 -47 -30
284 -47 -30
285 -47 -30
286 -47 -30
287 -33 -14
288 -33 -14
289 -33 -14
290 -36 -28
291 -36 -28
292 -36 -28
293 -36 -28
294 -3 -21
295 -3 -21
296 -3 -21
297 -3 -21
298 21 47
299 21 47
300 21 47
301 23 -2
302 23 -2
303 23 -2
304 23 -2
305 23 -2
306 23 -2
307 -42 -7
308 -42 -7
309 -42 -7
310 -42 -7
311 -42 -7
312 -13 33
313 -13 33
314 -13 33
315 33 -37
316 33 -37
317 33 -37
318 0 46
319 0 46
320 0 46
321 5 -24
322 5 -24
323 5 -24
324 5 -24
325 -1 21
326 -1 21
327 -1 21
328 -1 21
329 -1 21
330 -49 14
331 -37 4
332 -37 4
333 -37 4
334 -37 4
335 -45 29
336 -45 29
337 42 25
338 42 25
339 8 -50
340 8 -50
341 8 -50
342 8 -50
343 8 -50
344 -25 5
345 -25 5
346 -25 5
347 -25 5
348 -25 5
349 -25 5
350 13 8
351 13 8
352 13 8
353 -1 -23
354 -1 -23
355 -1 -23
356 -1 -23
357 -5 -40
358 -5 -40
359 -5 -40
360 -5 -40
361 -5 -40
362 -5 -40
363 13 43
364 13 43
365 13 43
366 43 30
367 43 30
368 43 30
369 -48 23
370 -48 23
371 -48 23
372 -48 23
373 -1 -2
374 -1 -2
375 -46 -12
376 -46 -12
377 -46 -12
378 -46 -12
379 -46 -12
380 -46 -12
381 49 7
382 49 7
383 49 7
384 28 28
385 28 28
386 28 28
387 28 28
388 28 28
389 28 28
390 28 28
391 -42 32
392 -42 32
393 -42 32
394 31 -45
395 31 -45
396 31 -45
397 32 -10
398 32 -10
399 32 -10
400 32 -10
401 32 -10
402 -5 41
403 -5 41
404 -5 41
405 -5 41
406 8 2
407 8 2
408 8 2
409 8 2
410 40 3
411 40 3
412 40 3
413 40 3
414 40 3
415 40 3
416 -44 -26
417 -44 -26
418 -44 -26
419 9 -44
420 9 -44
421 9 -44
422 -29 -19
423 -2 -43
424 -2 -43
425 -39 9
426 -39 9
427 -31 -3
428 -31 -3
429 -31 -3
430 -44 43
431 -44 43
432 -44 43
433 -44 43
434 -44 43
435 -44 43
436 -41 -21
437 -41 -21
438 -41 -21
439 -41 -21
440 1 47
441 1 47
442 1 47
443 1 47
444 -36 -39
445 -36 -39
446 -26 36
447 -26 36
448 -26 36
449 -23 6
450 -23 6
451 -23 6
452 -23 6
453 -23 6
454 -19 -16
455 -19 -16
456 -19 -16
457 -19 -16
458 -19 -16
459 -19 -16
460 -7 12
461 -7 12
462 -7 12
463 19 21
464 19 21
465 19 21
466 19 21
467 19 21
468 10 -10
469 10 -10
470 10 -10
471 10 -10
472 -29 25
473 -29 25
474 -29 25
475 -29 25
476 42 -11
477 42 -11
478 42 -11
479 42 -11
480 24 -48
481 24 -48
482 24 -48
483 24 -48
484 24 -48
485 40 -36
486 40 -36
487 40 -36
488 40 -36
489 14 -4
490 14 -4
491 14 -4
492 14 -4
493 14 -4
494 14 -4
495 -50 11
496 -50 11
497 -50 11
498 -50 11
499 -50 11
500 -50 11
501 -27 -41
502 -27 -41
503 -27 -41
504 22 46
505 22 46
506 49 -37
507 49 -37
508 49 -37
509 49 -37
510 49 -37
511 49 -37
512 49 -37
513 28 -17
514 28 -17
515 28 -17
516 28 -17
517 28 -17
518 -28 -10
519 -28 -10
520 -28 -10
521 -28 -10
522 -28 -10
523 -28 -10
524 -40 4
525 -40 4
526 -40 4
527 -40 4
528 -40 4
529 -40 4
530 -3 -32
531 -3 -32
532 -3 -32
533 -3 -32
534 -3 -32
535 -35 21
536 -35 21
537 -35 21
538 -35 21
539 -35 21
540 -1 21
541 -1 21
542 -1 21
543 -1 21
544 -1 21
545 -43 -50
546 -43 -50
547 -43 -50
548 -46 6
549 -46 6
550 -46 6
551 22 -4
552 22 -4
553 12 -11
554 12 -11
555 12 -11
556 12 -11
557 12 -11
558 13 9
559 13 9
560 13 9
561 13 9
562 13 9
563 -44 -5
564 -44 -5
565 -44 -5
566 4 14
567 4 14
568 4 14
569 4 14
570 4 14
571 4 14
572 44 -36
573 44 -36
574 44 -36
575 44 -36
576 44 -36
577 44 -36
578 48 44
579 48 44
580 48 44
581 48 44
582 48 44
583 48 44
584 -30 -40
585 -30 -40
586 -30 -40
587 -30 -40
588 0 -48
589 -45 -28
590 -45 -28
591 -45 -28
592 -45 -28
593 -25 9
594 -25 9
595 -25 9
596 6 -38
597 6 -38
598 6 -38
599 6 -38
600 6 -38
601 -25 -9
602 -25 -9
603 -25 -9
604 -25 -9
605 -25 -9
606 35 -9
607 35 -9
608 35 -9
609 35 -9
610 35 -9
611 37 29
612 37 29
613 37 29
614 4 3
615 4 3
616 4 3
617 4 3
618 -34 -16
619 -34 -16
620 -34 -16
621 -34 -16
622 -34 -16
623 -34 -16
624 -18 24
625 -18 24
626 -18 24
627 -18 24
628 47 7
629 47 7
630 47 7
631 42 -29
632 42 -29
633 42 -29
634 42 -29
635 42 -29
636 42 -29
637 4 -28
638 4 -28
639 4 -28
640 4 -28
641 4 -28
642 31 -37
643 31 -37
644 11 23
645 11 23
646 11 23
647 11 23
648 11 23
649 45 -46
650 45 -46
651 -2 4
652 -2 4
653 -2 4
654 -2 4
655 -2 4
656 -28 -17
657 -28 -17
658 -28 -17
659 -28 -17
660 -28 -17
661 -36 -18
662 -36 -18
663 -36 -18
664 -23 -13
665 -23 -13
666 -23 -13
667 -23 -13
668 46 20
669 46 20
670 46 20
671 46 20
672 46 20
673 46 20
674 -33 3
675 -33 3
676 -33 3
677 -33 3
678 -33 3
679 -33 3
680 -19 10
681 -19 10
682 -19 10
683 -19 10
684 -19 10
685 -19 10
686 -28 -42
687 -14 28
688 -14 28
689 -14 28
690 30 24
691 30 24
692 -24 32
693 -24 32
694 -24 32
695 -24 32
696 -24 32
697 27 -38
698 27 -38
699 27 -38
700 27 -38
701 33 12
702 33 12
703 33 12
704 33 12
705 33 12
706 13 -24
707 13 -24
708 13 -24
709 13 -24
710 13 -24
711 -25 1
712 -25 1
713 -25 1
714 -25 1
715 -25 1
716 32 47
717 32 47
718 32 47
719 17 19
720 17 19
721 17 19
722 -49 -37
723 -49 -37
724 -49 -37
725 -49 -37
726 36 2
727 36 2
728 36 2
729 4 43
730 4 43
731 4 43
732 4 43
733 4 43
734 -31 29
735 -31 29
736 15 47
737 15 47
738 15 47
739 15 47
740 39 -29
741 39 -29
742 39 -29
743 39 -29
744 10 46
745 10 46
746 10 46
747 10 46
748 10 46
749 10 46
750 10 46
751 18 20
752 18 20
753 18 20
754 43 -49
755 43 -49
756 43 -49
757 43 -49
758 43 -49
759 -19 22
760 -19 22
761 -19 22
762 -19 22
763 8 5
764 8 5
765 -12 -25
766 -12 -25
767 -42 -33
768 -42 -33
769 -42 -33
770 -42 -33
771 -42 -33
772 -42 -33
773 -42 -33
774 -30 -33
775 -30 -33
776 -30 -33
777 -30 -33
778 -30 -33
779 -30 -33
780 36 32
781 36 32
782 36 32
783 36 32
784 36 32
785 36 32
786 36 32
787 50 8
788 50 8
789 50 8
790 50 8
791 -36 19
792 -36 19
793 -36 19
794 -36 19
795 -36 19
796 -36 19
797 -27 -6
798 -27 -6
799 -27 -6
800 -27 -6
801 1 30
802 1 30
803 1 30
804 1 30
805 1 30
806 14 0
807 18 19
808 18 19
809 -47 -46
810 -47 -46
811 -47 -46
812 37 -26
813 37 -26
814 37 -26
815 37 -26
816 10 24
817 10 24
818 10 24
819 10 24
820 25 -38
821 25 -38
822 25 -38
823 25 -38
824 25 -38
825 44 20
826 44 20
827 44 20
828 44 20
829 -10 -3
830 -10 -3
831 -10 -3
832 -10 -3
833 -10 -3
834 -10 -3
DEMAND_SECTION
1 0
2 20
3 20
4 5
5 1
6 1
7 1
8 10
9 5
10 20
11 10
12 1
13 1
14 1
15 1
16 10
17 5
18 1
19 1
20 10
21 1
22 1
23 1
24 1
25 20
26 10
27 1
28 1
29 1
30 1
31 20
32 1
33 1
34 1
35 20
36 10
37 5
38 1
39 1
40 1
41 10
42 5
43 1
44 1
45 20
46 20
47 1
48 1
49 1
50 1
51 20
52 20
53 1
54 1
55 10
56 5
57 1
58 1
59 1
60 20
61 5
62 1
63 1
64 1
65 1
66 20
67 10
68 1
69 20
70 10
71 5
72 1
73 1
74 1
75 20
76 1
77 1
78 1
79 1
80 20
81 20
82 1
83 1
84 1
85 1
86 20
87 20
88 5
89 1
90 1
91 1
92 1
93 20
94 10
95 5
96 1
97 10
98 1
99 1
100 1
101 20
102 10
103 5
104 10
105 5
106 1
107 1
108 1
109 20
110 20
111 10
112 10
113 5
114 1
115 1
116 20
117 20
118 1
119 1
120 1
121 1
122 20
123 10
124 1
125 10
126 5
127 1
128 1
129 1
130 20
131 20
132 1
133 20
134 10
135 1
136 20
137 1
138 20
139 5
140 1
141 20
142 1
143 1
144 1
145 20
146 20
147 1
148 1
149 1
150 1
151 20
152 20
153 5
154 1
155 1
156 10
157 5
158 1
159 1
160 1
161 20
162 10
163 5
164 1
165 1
166 20
167 20
168 5
169 1
170 1
171 20
172 10
173 1
174 1
175 1
176 1
177 20
178 10
179 20
180 20
181 1
182 20
183 20
184 5
185 1
186 1
187 1
188 20
189 5
190 1
191 10
192 5
193 20
194 10
195 1
196 1
197 1
198 1
199 20
200 20
201 5
202 20
203 10
204 1
205 1
206 1
207 20
208 5
209 1
210 1
211 20
212 20
213 5
214 20
215 20
216 5
217 1
218 1
219 1
220 20
221 20
222 5
223 1
224 1
225 20
226 20
227 1
228 1
229 1
230 1
231 20
232 20
233 5
234 1
235 20
236 5
237 1
238 1
239 10
240 1
241 1
242 1
243 20
244 20
245 1
246 20
247 10
248 20
249 10
250 1
251 1
252 1
253 20
254 10
255 1
256 1
257 1
258 1
259 20
260 10
261 10
262 1
263 1
264 1
265 20
266 10
267 5
268 1
269 1
270 1
271 20
272 20
273 5
274 20
275 1
276 1
277 10
278 1
279 1
280 1
281 1
282 20
283 1
284 1
285 1
286 1
287 10
288 5
289 1
290 10
291 1
292 1
293 1
294 20
295 20
296 5
297 1
298 20
299 10
300 5
301 20
302 20
303 5
304 1
305 1
306 1
307 20
308 20
309 5
310 1
311 1
312 20
313 10
314 1
315 20
316 10
317 1
318 20
319 20
320 1
321 20
322 1
323 1
324 1
325 20
326 20
327 5
328 1
329 1
330 20
331 20
332 1
333 1
334 1
335 20
336 1
337 20
338 1
339 20
340 10
341 1
342 1
343 1
344 20
345 5
346 1
347 1
348 1
349 1
350 20
351 10
352 5
353 20
354 1
355 1
356 1
357 20
358 5
359 1
360 1
361 1
362 1
363 20
364 20
365 5
366 20
367 10
368 5
369 10
370 1
371 1
372 1
373 20
374 20
375 20
376 5
377 1
378 1
379 1
380 1
381 10
382 1
383 1
384 20
385 20
386 5
387 1
388 1
389 1
390 1
391 20
392 10
393 5
394 10
395 1
396 1
397 20
398 5
399 1
400 1
401 1
402 20
403 5
404 1
405 1
406 10
407 5
408 1
409 1
410 10
411 5
412 1
413 1
414 1
415 1
416 20
417 20
418 1
419 10
420 5
421 1
422 20
423 10
424 5
425 20
426 5
427 20
428 10
429 1
430 10
431 5
432 1
433 1
434 1
435 1
436 10
437 1
438 1
439 1
440 20
441 10
442 1
443 1
444 20
445 1
446 20
447 1
448 1
449 10
450 1
451 1
452 1
453 1
454 20
455 5
456 1
457 1
458 1
459 1
460 20
461 10
462 1
463 20
464 1
465 1
466 1
467 1
468 20
469 1
470 1
471 1
472 20
473 1
474 1
475 1
476 10
477 5
478 1
479 1
480 20
481 5
482 1
483 1
484 1
485 20
486 5
487 1
488 1
489 20
490 20
491 1
492 1
493 1
494 1
495 20
496 20
497 5
498 1
499 1
500 1
501 20
502 1
503 1
504 10
505 5
506 20
507 10
508 5
509 1
510 1
511 1
512 1
513 20
514 20
515 1
516 1
517 1
518 10
519 5
520 1
521 1
522 1
523 1
524 20
525 10
526 5
527 1
528 1
529 1
530 10
531 1
532 1
533 1
534 1
535 20
536 1
537 1
538 1
539 1
540 10
541 5
542 1
543 1
544 1
545 20
546 5
547 1
548 20
549 20
550 1
551 20
552 20
553 10
554 5
555 1
556 1
557 1
558 10
559 1
560 1
561 1
562 1
563 20
564 10
565 5
566 20
567 5
568 1
569 1
570 1
571 1
572 10
573 5
574 1
575 1
576 1
577 1
578 10
579 5
580 1
581 1
582 1
583 1
584 20
585 5
586 1
587 1
588 20
589 20
590 1
591 1
592 1
593 10
594 5
595 1
596 20
597 10
598 5
599 1
600 1
601 20
602 20
603 1
604 1
605 1
606 20
607 10
608 5
609 1
610 1
611 20
612 10
613 5
614 20
615 1
616 1
617 1
618 20
619 20
620 5
621 1
622 1
623 1
624 20
625 10
626 1
627 1
628 20
629 1
630 1
631 20
632 10
633 1
634 1
635 1
636 1
637 20
638 10
639 1
640 1
641 1
642 20
643 20
644 20
645 10
646 1
647 1
648 1
649 20
650 20
651 10
652 1
653 1
654 1
655 1
656 20
657 20
658 5
659 1
660 1
661 20
662 20
663 5
664 20
665 10
666 1
667 1
668 20
669 20
670 5
671 1
672 1
673 1
674 20
675 20
676 5
677 1
678 1
679 1
680 20
681 20
682 1
683 1
684 1
685 1
686 20
687 10
688 5
689 1
690 20
691 1
692 20
693 10
694 1
695 1
696 1
697 20
698 20
699 1
700 1
701 20
702 1
703 1
704 1
705 1
706 20
707 1
708 1
709 1
710 1
711 20
712 20
713 5
714 1
715 1
716 20
717 20
718 10
719 20
720 10
721 5
722 20
723 1
724 1
725 1
726 10
727 1
728 1
729 20
730 20
731 5
732 1
733 1
734 10
735 5
736 20
737 10
738 5
739 1
740 20
741 20
742 1
743 1
744 20
745 20
746 5
747 1
748 1
749 1
750 1
751 20
752 20
753 1
754 20
755 10
756 1
757 1
758 1
759 10
760 1
761 1
762 1
763 20
764 20
765 20
766 1
767 20
768 20
769 5
770 1
771 1
772 1
773 1
774 20
775 10
776 1
777 1
778 1
779 1
780 20
781 10
782 5
783 1
784 1
785 1
786 1
787 20
788 20
789 1
790 1
791 10
792 5
793 1
794 1
795 1
796 1
797 20
798 20
799 1
800 1
801 20
802 20
803 5
804 1
805 1
806 20
807 20
808 10
809 20
810 1
811 1
812 20
813 10
814 5
815 1
816 20
817 20
818 1
819 1
820 20
821 10
822 1
823 1
824 1
825 10
826 5
827 1
828 1
829 20
830 5
831 1
832 1
833 1
834 1
DEPOT_SECTION
1
-1
EOF