Normalized Data/p10_2_normalized_split0.sol
833 -18 17 648 649 757 755 753 754 756 393 395 394 821 823 820 -24 334 335 371 368 369 370 112 114 113 329 111 714 712 -26 25 29 28 27 110 108 109 392 390 391 -40 41 42 43 503 504 297 299 298 735 737 738 364 -45 47 46 44 49 48 670 669 668 671 672 667 826 825 106 -57 55 54 56 58 152 154 151 150 153 434 431 430 432 429 433 733 734 -61 63 64 62 60 59 596 599 595 7 8 705 708 709 707 706 -65 67 66 9 14 13 10 11 12 350 351 349 -76 232 233 476 477 191 190 70 71 68 73 72 69 633 632 631 630 635 634 -77 78 230 231 478 475 188 189 187 304 300 -79 83 84 80 325 543 540 328 539 324 327 -81 82 730 729 731 732 728 248 249 251 247 250 122 123 326 541 542 -90 89 87 86 91 88 85 130 131 129 -93 4 5 3 2 6 1 697 699 696 698 -95 94 92 480 481 479 212 210 211 483 482 -102 818 817 815 816 645 647 644 646 643 176 -117 119 116 118 120 115 339 338 342 340 341 419 420 418 598 597 -121 442 440 441 439 318 317 319 403 402 -133 132 134 75 74 217 218 215 213 216 214 -145 144 147 149 471 474 472 473 624 625 623 626 -158 159 155 156 157 323 322 320 321 637 639 638 640 636 355 353 354 352 277 -172 174 175 173 171 170 372 373 -177 720 719 718 752 750 806 807 -183 186 185 182 361 356 359 358 357 360 587 422 423 530 221 222 -192 196 197 194 193 195 227 229 225 228 311 313 312 686 652 653 -200 199 198 715 717 716 -203 201 204 454 456 421 659 658 656 655 664 -205 202 457 458 455 453 776 778 775 777 773 242 244 243 -208 207 209 206 579 582 580 578 581 577 135 136 268 265 269 689 690 -224 226 245 246 401 404 235 234 236 237 -253 252 254 257 256 255 399 396 400 397 398 606 607 605 609 608 -259 258 515 512 50 52 51 53 555 553 554 -280 279 276 278 219 223 220 296 295 294 293 -292 290 291 289 768 772 767 766 770 771 769 128 126 127 124 284 282 283 285 589 588 -306 310 307 308 309 35 37 36 38 34 39 520 521 517 -345 348 330 331 524 528 523 525 425 424 238 240 239 241 451 449 452 -363 362 736 746 745 743 748 747 744 749 -376 374 375 378 379 377 563 562 564 99 98 96 97 260 262 427 428 -405 805 302 303 301 305 550 551 490 492 491 -412 409 410 413 169 165 168 166 167 139 137 138 725 -416 417 415 438 437 435 436 660 661 662 -426 263 261 30 31 32 33 674 676 673 592 -448 450 343 344 346 347 711 710 713 828 -460 459 461 274 275 273 684 682 680 683 681 679 -469 467 556 552 493 489 488 406 407 408 613 -470 468 314 316 315 641 642 822 819 -484 485 486 487 15 16 509 511 510 505 506 508 507 572 574 575 571 576 573 -494 497 495 498 499 496 547 548 549 527 526 332 333 678 677 675 -501 502 500 685 586 583 585 584 443 444 774 -513 514 516 814 811 812 813 739 741 740 742 -531 533 532 529 181 184 270 271 272 765 764 -546 544 545 808 809 810 722 721 724 723 125 281 590 591 -559 557 558 105 103 107 104 366 367 365 336 337 824 827 702 703 704 701 -570 567 178 568 100 101 804 803 802 800 801 -594 593 142 143 141 140 791 790 794 795 793 792 22 21 23 19 20 537 536 534 538 535 146 148 759 758 -604 603 522 519 518 287 288 286 622 619 617 620 618 621 657 666 663 665 -611 610 612 266 267 264 780 785 779 781 784 783 782 -616 615 614 560 561 388 384 386 389 383 385 387 464 465 463 466 462 751 -654 651 650 569 180 566 565 179 763 762 -688 687 162 161 163 160 164 446 447 445 695 694 692 693 691 761 760 -700 789 788 786 787 380 381 382 627 629 628 414 411 726 727 -798 796 797 799 600 601 602 829 833 830 832 831 0 





OBJ=
5404.074
BEST_KNOWN=
0.000